certificates/rado_a6_c124_N21.drat
-21 0
19 0
-9 0
7 0
11 0
-17 0
-1 0
-20 0
15 0
18 0
13 0
0
